n = 9;

K = 5;
/*archi = 
[ [0 1 0 1 0 0 0 0 0]
         [1 0 1 0 1 1 0 0 0]
         [0 1 0 0 0 0 1 0 0]
         [1 0 0 0 1 0 0 0 0]
         [0 1 0 1 0 1 0 1 0]
         [0 1 0 0 1 0 1 0 1]
         [0 0 1 0 0 1 0 0 0]
         [0 0 0 0 1 0 0 0 1]
         [0 0 0 0 0 1 0 1 0]
];*/

clique =
[ [0 1 1 0 0 1 0 0 0]
  [0 0 1 0 0 1 1 0 0]
  [1 0 0 1 0 0 0 0 0]
  [0 0 0 0 1 0 0 1 0]
  [0 0 0 0 0 0 0 1 1]
];